c FILE: zed-city_2019.col
c Author: IBM Quantum Hackathon 2019
c DESCRIPTION: Zed city problem, which is an instance of vertex coloring.
c              It aims at distributing 4 convenience stores among 7 districts.
c              This is represented as a vertex coloring intance.
p edge 11 22
n 8 0
n 9 1
n 10 2
n 11 3
e 1 2
e 1 3
e 1 4
e 1 8
e 2 4
e 2 5
e 2 9
e 3 4
e 3 6
e 3 7
e 3 8
e 3 10
e 4 5
e 4 6
e 4 7
e 4 8
e 5 7
e 5 9
e 6 7
e 6 11
e 7 11
e 10 11
x colors 4